feasible solution found by trivial heuristic after 0.0 seconds, objective value 0.000000e+00
presolving:
(round 1, fast)       4440 del vars, 111 del conss, 0 add conss, 0 chg bounds, 0 chg sides, 0 chg coeffs, 0 upgd conss, 0 impls, 389 clqs
   (0.1s) running MILP presolver
   (0.1s) MILP presolver found nothing
(round 2, exhaustive) 4440 del vars, 111 del conss, 0 add conss, 0 chg bounds, 0 chg sides, 0 chg coeffs, 469 upgd conss, 0 impls, 389 clqs
   (0.2s) probing: 51/15560 (0.3%) - 0 fixings, 0 aggregations, 0 implications, 0 bound changes
   (0.2s) probing aborted: 50/50 successive totally useless probings
   (0.3s) symmetry computation started: requiring (bin +, int -, cont +), (fixed: bin -, int +, cont -)
   (0.3s) symmetry computation finished: 52 generators found (max: 1500, log10 of symmetry group size: 19.4)
(round 3, exhaustive) 4440 del vars, 111 del conss, 37 add conss, 0 chg bounds, 0 chg sides, 0 chg coeffs, 469 upgd conss, 0 impls, 389 clqs
presolving (4 rounds: 4 fast, 3 medium, 3 exhaustive):
 4440 deleted vars, 111 deleted constraints, 37 added constraints, 0 tightened bounds, 0 added holes, 0 changed sides, 0 changed coefficients
 0 implications, 389 cliques
presolved problem has 15560 variables (15560 bin, 0 int, 0 impl, 0 cont) and 506 constraints
     80 constraints of type <knapsack>
    389 constraints of type <setppc>
     37 constraints of type <orbitope>
transformed objective value is always integral (scale: 1)
Presolving Time: 0.31
transformed 1/1 original solutions to the transformed problem space

 time | node  | left  |LP iter|LP it/n|mem/heur|mdpt |vars |cons |rows |cuts |sepa|confs|strbr|  dualbound   | primalbound  |  gap   | compl. 
p 0.4s|     1 |     0 |     0 |     - |  clique|   0 |  15k| 506 | 469 |   0 |  0 |   0 |   0 | 9.046400e+05 | 1.355300e+04 |6574.83%| unknown
  3.1s|     1 |     0 | 10463 |     - |   243M |   0 |  15k| 506 | 469 |   0 |  0 |   0 |   0 | 1.990723e+04 | 1.355300e+04 |  46.88%| unknown
r 3.2s|     1 |     0 | 10463 |     - |rounding|   0 |  15k| 506 | 469 |   0 |  0 |   0 |   0 | 1.990723e+04 | 1.571500e+04 |  26.68%| unknown
r 3.2s|     1 |     0 | 10463 |     - |shifting|   0 |  15k| 506 | 469 |   0 |  0 |   0 |   0 | 1.990723e+04 | 1.577800e+04 |  26.17%| unknown
i 3.2s|     1 |     0 | 10463 |     - |  oneopt|   0 |  15k| 506 | 469 |   0 |  0 |   0 |   0 | 1.990723e+04 | 1.899700e+04 |   4.79%| unknown
  5.7s|     1 |     0 | 23722 |     - |   254M |   0 |  15k| 506 | 509 |  40 |  1 |   0 |   0 | 1.964870e+04 | 1.899700e+04 |   3.43%| unknown
  7.0s|     1 |     0 | 31442 |     - |   259M |   0 |  15k| 506 | 543 |  74 |  2 |   0 |   0 | 1.954112e+04 | 1.899700e+04 |   2.86%| unknown
  7.1s|     1 |     0 | 31625 |     - |   259M |   0 |  15k| 506 | 572 | 103 |  3 |   0 |   0 | 1.954070e+04 | 1.899700e+04 |   2.86%| unknown
  8.4s|     1 |     0 | 37664 |     - |   264M |   0 |  15k| 506 | 601 | 132 |  4 |   0 |   0 | 1.947403e+04 | 1.899700e+04 |   2.51%| unknown
  9.1s|     1 |     0 | 39687 |     - |   266M |   0 |  15k| 506 | 628 | 159 |  5 |   0 |   0 | 1.947120e+04 | 1.899700e+04 |   2.50%| unknown
  9.7s|     1 |     0 | 40848 |     - |   268M |   0 |  15k| 506 | 656 | 187 |  6 |   0 |   0 | 1.947120e+04 | 1.899700e+04 |   2.50%| unknown
 10.0s|     1 |     0 | 41271 |     - |   270M |   0 |  15k| 506 | 680 | 211 |  7 |   0 |   0 | 1.946779e+04 | 1.899700e+04 |   2.48%| unknown
 10.4s|     1 |     0 | 41790 |     - |   273M |   0 |  15k| 506 | 702 | 233 |  8 |   0 |   0 | 1.946779e+04 | 1.899700e+04 |   2.48%| unknown
 10.6s|     1 |     0 | 41900 |     - |   276M |   0 |  15k| 506 | 726 | 257 |  9 |   0 |   0 | 1.946779e+04 | 1.899700e+04 |   2.48%| unknown
 10.8s|     1 |     0 | 42153 |     - |   279M |   0 |  15k| 506 | 751 | 282 | 10 |   0 |   0 | 1.946779e+04 | 1.899700e+04 |   2.48%| unknown
 time | node  | left  |LP iter|LP it/n|mem/heur|mdpt |vars |cons |rows |cuts |sepa|confs|strbr|  dualbound   | primalbound  |  gap   | compl. 
 11.2s|     1 |     0 | 42707 |     - |   280M |   0 |  15k| 506 | 762 | 303 | 11 |   0 |   0 | 1.945928e+04 | 1.899700e+04 |   2.43%| unknown
 12.2s|     1 |     0 | 45759 |     - |   281M |   0 |  15k| 506 | 786 | 327 | 12 |   0 |   0 | 1.945587e+04 | 1.899700e+04 |   2.42%| unknown
 14.2s|     1 |     0 | 56692 |     - |   282M |   0 |  15k| 506 | 814 | 355 | 13 |   0 |   0 | 1.942951e+04 | 1.899700e+04 |   2.28%| unknown
 14.7s|     1 |     0 | 58271 |     - |   282M |   0 |  15k| 506 | 841 | 382 | 14 |   0 |   0 | 1.940995e+04 | 1.899700e+04 |   2.17%| unknown
 15.4s|     1 |     0 | 59984 |     - |   282M |   0 |  15k| 506 | 866 | 407 | 15 |   0 |   0 | 1.940995e+04 | 1.899700e+04 |   2.17%| unknown
 15.6s|     1 |     0 | 60414 |     - |   283M |   0 |  15k| 506 | 885 | 426 | 16 |   0 |   0 | 1.939753e+04 | 1.899700e+04 |   2.11%| unknown
 16.2s|     1 |     0 | 62718 |     - |   283M |   0 |  15k| 506 | 809 | 445 | 17 |   0 |   0 | 1.939753e+04 | 1.899700e+04 |   2.11%| unknown
 16.9s|     1 |     0 | 65164 |     - |   283M |   0 |  15k| 506 | 830 | 466 | 18 |   0 |   0 | 1.939753e+04 | 1.899700e+04 |   2.11%| unknown
 17.5s|     1 |     0 | 66736 |     - |   285M |   0 |  15k| 506 | 853 | 489 | 19 |   0 |   0 | 1.939753e+04 | 1.899700e+04 |   2.11%| unknown
 17.8s|     1 |     0 | 67444 |     - |   285M |   0 |  15k| 506 | 875 | 511 | 20 |   0 |   0 | 1.939753e+04 | 1.899700e+04 |   2.11%| unknown
 19.8s|     1 |     0 | 74752 |     - |   285M |   0 |  15k| 506 | 897 | 533 | 21 |   0 |   0 | 1.939753e+04 | 1.899700e+04 |   2.11%| unknown
 20.0s|     1 |     0 | 75396 |     - |   286M |   0 |  15k| 506 | 918 | 554 | 22 |   0 |   0 | 1.939753e+04 | 1.899700e+04 |   2.11%| unknown
 20.2s|     1 |     0 | 75579 |     - |   286M |   0 |  15k| 506 | 829 | 577 | 23 |   0 |   0 | 1.937592e+04 | 1.899700e+04 |   1.99%| unknown
 20.4s|     1 |     0 | 76111 |     - |   286M |   0 |  15k| 506 | 850 | 598 | 24 |   0 |   0 | 1.937592e+04 | 1.899700e+04 |   1.99%| unknown
 20.5s|     1 |     0 | 76321 |     - |   286M |   0 |  15k| 506 | 871 | 619 | 25 |   0 |   0 | 1.937592e+04 | 1.899700e+04 |   1.99%| unknown
 time | node  | left  |LP iter|LP it/n|mem/heur|mdpt |vars |cons |rows |cuts |sepa|confs|strbr|  dualbound   | primalbound  |  gap   | compl. 
 20.8s|     1 |     0 | 76685 |     - |   286M |   0 |  15k| 506 | 892 | 640 | 26 |   0 |   0 | 1.937592e+04 | 1.899700e+04 |   1.99%| unknown
 20.9s|     1 |     0 | 76832 |     - |   287M |   0 |  15k| 506 | 911 | 659 | 27 |   0 |   0 | 1.937592e+04 | 1.899700e+04 |   1.99%| unknown
 21.1s|     1 |     0 | 76999 |     - |   287M |   0 |  15k| 506 | 923 | 671 | 28 |   0 |   0 | 1.934557e+04 | 1.899700e+04 |   1.83%| unknown
 21.2s|     1 |     0 | 77135 |     - |   287M |   0 |  15k| 506 | 836 | 686 | 29 |   0 |   0 | 1.933931e+04 | 1.899700e+04 |   1.80%| unknown
 21.3s|     1 |     0 | 77213 |     - |   288M |   0 |  15k| 506 | 849 | 699 | 30 |   0 |   0 | 1.933931e+04 | 1.899700e+04 |   1.80%| unknown
 21.4s|     1 |     0 | 77271 |     - |   289M |   0 |  15k| 506 | 860 | 710 | 31 |   0 |   0 | 1.933292e+04 | 1.899700e+04 |   1.77%| unknown
 21.6s|     1 |     0 | 77383 |     - |   289M |   0 |  15k| 506 | 876 | 726 | 32 |   0 |   0 | 1.933268e+04 | 1.899700e+04 |   1.77%| unknown
 21.7s|     1 |     0 | 77451 |     - |   290M |   0 |  15k| 506 | 888 | 738 | 33 |   0 |   0 | 1.933268e+04 | 1.899700e+04 |   1.77%| unknown
 21.8s|     1 |     0 | 77503 |     - |   290M |   0 |  15k| 506 | 904 | 754 | 34 |   0 |   0 | 1.933268e+04 | 1.899700e+04 |   1.77%| unknown
 22.1s|     1 |     0 | 77924 |     - |   290M |   0 |  15k| 506 | 823 | 768 | 35 |   0 |   0 | 1.933023e+04 | 1.899700e+04 |   1.75%| unknown
 22.3s|     1 |     0 | 78074 |     - |   290M |   0 |  15k| 506 | 835 | 780 | 36 |   0 |   0 | 1.933023e+04 | 1.899700e+04 |   1.75%| unknown
 22.4s|     1 |     0 | 78167 |     - |   291M |   0 |  15k| 506 | 850 | 795 | 37 |   0 |   0 | 1.933023e+04 | 1.899700e+04 |   1.75%| unknown
 22.6s|     1 |     0 | 78292 |     - |   291M |   0 |  15k| 506 | 869 | 814 | 38 |   0 |   0 | 1.933023e+04 | 1.899700e+04 |   1.75%| unknown
 22.7s|     1 |     0 | 78344 |     - |   292M |   0 |  15k| 506 | 888 | 833 | 39 |   0 |   0 | 1.933023e+04 | 1.899700e+04 |   1.75%| unknown
 22.9s|     1 |     0 | 78397 |     - |   292M |   0 |  15k| 506 | 900 | 845 | 40 |   0 |   0 | 1.933023e+04 | 1.899700e+04 |   1.75%| unknown
 time | node  | left  |LP iter|LP it/n|mem/heur|mdpt |vars |cons |rows |cuts |sepa|confs|strbr|  dualbound   | primalbound  |  gap   | compl. 
 23.0s|     1 |     0 | 78465 |     - |   294M |   0 |  15k| 506 | 856 | 854 | 41 |   0 |   0 | 1.933023e+04 | 1.899700e+04 |   1.75%| unknown
 23.1s|     1 |     0 | 78501 |     - |   294M |   0 |  15k| 506 | 871 | 869 | 42 |   0 |   0 | 1.932764e+04 | 1.899700e+04 |   1.74%| unknown
 23.3s|     1 |     0 | 78566 |     - |   294M |   0 |  15k| 506 | 881 | 879 | 43 |   0 |   0 | 1.932764e+04 | 1.899700e+04 |   1.74%| unknown
 23.4s|     1 |     0 | 78626 |     - |   295M |   0 |  15k| 506 | 898 | 896 | 44 |   0 |   0 | 1.932764e+04 | 1.899700e+04 |   1.74%| unknown
 23.5s|     1 |     0 | 78667 |     - |   295M |   0 |  15k| 506 | 913 | 911 | 45 |   0 |   0 | 1.932764e+04 | 1.899700e+04 |   1.74%| unknown
 23.6s|     1 |     0 | 78689 |     - |   295M |   0 |  15k| 506 | 925 | 923 | 46 |   0 |   0 | 1.932500e+04 | 1.899700e+04 |   1.73%| unknown
 23.8s|     1 |     0 | 78713 |     - |   295M |   0 |  15k| 506 | 898 | 933 | 47 |   0 |   0 | 1.932500e+04 | 1.899700e+04 |   1.73%| unknown
 23.9s|     1 |     0 | 78731 |     - |   295M |   0 |  15k| 506 | 906 | 941 | 48 |   0 |   0 | 1.932500e+04 | 1.899700e+04 |   1.73%| unknown
 23.9s|     1 |     0 | 78758 |     - |   295M |   0 |  15k| 506 | 914 | 949 | 49 |   0 |   0 | 1.932500e+04 | 1.899700e+04 |   1.73%| unknown
 24.0s|     1 |     0 | 78779 |     - |   296M |   0 |  15k| 506 | 921 | 956 | 50 |   0 |   0 | 1.932500e+04 | 1.899700e+04 |   1.73%| unknown
 24.2s|     1 |     0 | 78813 |     - |   296M |   0 |  15k| 506 | 927 | 962 | 51 |   0 |   0 | 1.932500e+04 | 1.899700e+04 |   1.73%| unknown
 24.3s|     1 |     0 | 78833 |     - |   296M |   0 |  15k| 506 | 938 | 973 | 52 |   0 |   0 | 1.932500e+04 | 1.899700e+04 |   1.73%| unknown
 24.4s|     1 |     0 | 78876 |     - |   296M |   0 |  15k| 506 | 914 | 982 | 53 |   0 |   0 | 1.932500e+04 | 1.899700e+04 |   1.73%| unknown
 24.5s|     1 |     0 | 78913 |     - |   296M |   0 |  15k| 506 | 923 | 991 | 54 |   0 |   0 | 1.932500e+04 | 1.899700e+04 |   1.73%| unknown
 24.6s|     1 |     0 | 78923 |     - |   296M |   0 |  15k| 506 | 926 | 994 | 55 |   0 |   0 | 1.932500e+04 | 1.899700e+04 |   1.73%| unknown
 time | node  | left  |LP iter|LP it/n|mem/heur|mdpt |vars |cons |rows |cuts |sepa|confs|strbr|  dualbound   | primalbound  |  gap   | compl. 
 24.7s|     1 |     0 | 78927 |     - |   296M |   0 |  15k| 506 | 929 | 997 | 56 |   0 |   0 | 1.932500e+04 | 1.899700e+04 |   1.73%| unknown
d25.4s|     1 |     0 | 79898 |     - |farkasdi|   0 |  15k| 506 | 929 |   0 | 56 |   0 |   0 | 1.932500e+04 | 1.908300e+04 |   1.27%| unknown
d25.4s|     1 |     0 | 79901 |     - |farkasdi|   0 |  15k| 506 | 929 |   0 | 56 |   0 |   0 | 1.932500e+04 | 1.923300e+04 |   0.48%| unknown
d25.4s|     1 |     0 | 79925 |     - |farkasdi|   0 |  15k| 506 | 929 |   0 | 56 |   0 |   0 | 1.932500e+04 | 1.932500e+04 |   0.00%| unknown
 25.4s|     1 |     0 | 79925 |     - |   298M |   0 |  15k| 506 | 929 | 997 | 56 |   0 |   0 | 1.932500e+04 | 1.932500e+04 |   0.00%| unknown

SCIP Status        : problem is solved [optimal solution found]
Solving Time (sec) : 25.44
Solving Nodes      : 1
Primal Bound       : +1.93250000000000e+04 (10 solutions)
Dual Bound         : +1.93250000000000e+04
Gap                : 0.00 %
Solve Status: optimal
Solve Time: 25.45 seconds
